100
50
1 18
2 17
3 18
4 14
5 11
6 17
7 18
8 14
9 17
10 13
11 20
12 16
13 20
14 18
15 15
16 12
17 10
18 17
19 15
20 17
21 19
22 15
23 15
24 11
25 16
26 16
27 16
28 12
29 14
30 10
31 12
32 11
33 15
34 18
35 15
36 17
37 14
38 11
39 10
40 19
41 14
42 18
43 15
44 11
45 15
46 18
47 13
48 13
49 15
50 16
